webassembly/ejemplos_dzn/folder5_json_3.dzn
TERM = { '.', 'local_1', 's(0)', 'in_0', 'local_0'};
null = '.';
s = 5;
n = 8;
ndeps = 1;
max_registers_sz = 3;
NR = 0;
registers = [| |];
dependencies = [|'i32.store16_3', 'i32.load8_s_4'|];
GET_ENUM = { GET1, GET2, GET3};
SET_ENUM = { SET1, SET2, SET3};
TEE_ENUM = { TEE1, TEE2, TEE3};
N = 4;
OP = { 'i32.store16_3', 'i32.load8_s_4', 'local.get_0', 'local.get_1' };
in_ops = [2, 1, 0, 0 ];
out_ops = [0, 1, 1, 1 ];
in1 = ['local_0', 'in_0', '.', '.' ];
in2 = ['local_1', '.', '.', '.' ];
in3 = ['.', '.', '.', '.' ];
out1 = ['.', 's(0)', 'local_0', 'local_1' ];
out2 = ['.', '.', '.', '.' ];
out3 = ['.', '.', '.', '.' ];
comm = [false, false, false, false ];
gas = [1, 1, 1, 1 ];
sz = [1, 1, 1, 1 ];
stor = [true, false, false, false ];
lb = [ 1, 1, 1, 1 ];
ub = [ 5, 5, 5, 5 ];
startstack = [ 'in_0', null, null, null, null, null, null, null ];
endstack = [ 's(0)', null, null, null, null, null, null, null ];
